
Log started (V11.0.0) Mon May 19 17:41:02 2008

Tried aggregator 1 time.
Reduced MIP has 550 rows, 25001 columns, and 50050 nonzeros.
Presolve time =    0.19 sec.
Clique table members: 500.
MIP emphasis: balance optimality and feasibility.
MIP search method: dynamic search.
Parallel mode: none, using 1 thread.
Root relaxation solution time =    2.08 sec.

        Nodes                                         Cuts/
   Node  Left     Objective  IInf  Best Integer     Best Node    ItCnt     Gap

*     0+    0                        55033.0000     1000.8800     1003   98.18%
*     0+    0                         1003.0000     1000.8800     1003    0.21%
      0     0     1001.0000    77     1003.0000      Fract: 6     1048    0.20%
      0     0     1001.0000    70     1003.0000     Covers: 1     1077    0.20%
      0     0     1001.0000    77     1003.0000     Covers: 1     1091    0.20%
      0     0     1001.0000    74     1003.0000     Covers: 1     1101    0.20%
      0     2     1001.0000    74     1003.0000     1001.0000     1101    0.20%
    100    73    infeasible           1003.0000     1001.0000    10214    0.20%
    200   139     1002.0000    84     1003.0000     1001.0000    19100    0.20%
    300   207    infeasible           1003.0000     1001.0000    27588    0.20%
    400   292     1001.0000    76     1003.0000     1001.0000    31948    0.20%
    500   384     1001.0000    88     1003.0000     1001.0000    37107    0.20%
    600   354    infeasible           1003.0000     1001.0000    66864    0.20%
    700   291     1002.0000    58     1003.0000     1001.0000   105977    0.20%
    800   259     1002.0000    75     1003.0000     1001.0000   147388    0.20%
    900   258     1002.0000    87     1003.0000     1001.0000   171745    0.20%
   1000   279     1002.0000    83     1003.0000     1001.0000   184654    0.20%
Elapsed time = 241.33 sec. (tree size =  3.60 MB, solutions = 2)
   1100   332     1002.0000    80     1003.0000     1001.0000   192740    0.20%
   1200   420     1002.0000    85     1003.0000     1001.0000   203958    0.20%
   1300   502     1001.0000    66     1003.0000     1001.0000   211706    0.20%
   1400   602     1001.0000    80     1003.0000     1001.0000   215628    0.20%
   1500   702     1001.0000    69     1003.0000     1001.0000   220461    0.20%
   1600   802     1001.0000    75     1003.0000     1001.0000   227241    0.20%
   1700   901     1002.0000    38     1003.0000     1001.0000   230219    0.20%
   1800  1001     1002.0000    37     1003.0000     1001.0000   233754    0.20%
   1900  1074    infeasible           1003.0000     1001.0000   236934    0.20%
   2000   989        cutoff           1003.0000     1001.0000   241915    0.20%
Elapsed time = 357.89 sec. (tree size = 13.02 MB, solutions = 2)
   2100   889        cutoff           1003.0000     1001.0000   245241    0.20%
   2200   789        cutoff           1003.0000     1001.0000   249430    0.20%
   2300   703     1001.0000    71     1003.0000     1001.0000   255078    0.20%
*  2303+   11                         1002.0000     1001.0000   255092    0.10%
   2400   108     1001.0000    71     1002.0000     1001.0000   257191    0.10%
   2500   206     1001.0000    79     1002.0000     1001.0000   261185    0.10%
   2600   305     1001.0000    60     1002.0000     1001.0000   266417    0.10%
   2700   403     1001.0000    66     1002.0000     1001.0000   274002    0.10%
   2800   376    infeasible           1002.0000     1001.0000   466656    0.10%
   2900   276    infeasible           1002.0000     1001.0000   769108    0.10%
   3000   176    infeasible           1002.0000     1001.0000  1073600    0.10%
Elapsed time = 729.55 sec. (tree size =  2.33 MB, solutions = 3)
   3100    76    infeasible           1002.0000     1001.0000  1387189    0.10%

Cover cuts applied:  44
Gomory fractional cuts applied:  8

Solution pool: 3 solutions saved.

MIP - Integer optimal solution:  Objective = 1.0020000000e+003
Solution time =  949.95 sec.  Iterations = 1650720  Nodes = 3177


Incumbent solution
Variable Name           Solution Value
Cmax                       1002.000000
X_1_31                        1.000000
X_2_46                        1.000000
X_3_15                        1.000000
X_4_47                        1.000000
X_5_34                        1.000000
X_6_1                         1.000000
X_7_20                        1.000000
X_8_12                        1.000000
X_9_41                        1.000000
X_10_7                        1.000000
X_11_9                        1.000000
X_12_25                       1.000000
X_13_39                       1.000000
X_14_35                       1.000000
X_15_28                       1.000000
X_16_48                       1.000000
X_17_16                       1.000000
X_18_4                        1.000000
X_19_44                       1.000000
X_20_37                       1.000000
X_21_20                       1.000000
X_22_18                       1.000000
X_23_35                       1.000000
X_24_5                        1.000000
X_25_9                        1.000000
X_26_8                        1.000000
X_27_25                       1.000000
X_28_12                       1.000000
X_29_31                       1.000000
X_30_45                       1.000000
X_31_29                       1.000000
X_32_31                       1.000000
X_33_4                        1.000000
X_34_22                       1.000000
X_35_31                       1.000000
X_36_43                       1.000000
X_37_36                       1.000000
X_38_7                        1.000000
X_39_38                       1.000000
X_40_35                       1.000000
X_41_21                       1.000000
X_42_4                        1.000000
X_43_24                       1.000000
X_44_3                        1.000000
X_45_27                       1.000000
X_46_27                       1.000000
X_47_8                        1.000000
X_48_50                       1.000000
X_49_32                       1.000000
X_50_37                       1.000000
X_51_13                       1.000000
X_52_37                       1.000000
X_53_6                        1.000000
X_54_19                       1.000000
X_55_46                       1.000000
X_56_17                       1.000000
X_57_20                       1.000000
X_58_39                       1.000000
X_59_12                       1.000000
X_60_14                       1.000000
X_61_7                        1.000000
X_62_32                       1.000000
X_63_1                        1.000000
X_64_10                       1.000000
X_65_44                       1.000000
X_66_30                       1.000000
X_67_23                       1.000000
X_68_42                       1.000000
X_69_20                       1.000000
X_70_43                       1.000000
X_71_19                       1.000000
X_72_36                       1.000000
X_73_31                       1.000000
X_74_22                       1.000000
X_75_19                       1.000000
X_76_42                       1.000000
X_77_49                       1.000000
X_78_8                        1.000000
X_79_10                       1.000000
X_80_15                       1.000000
X_81_31                       1.000000
X_82_11                       1.000000
X_83_21                       1.000000
X_84_48                       1.000000
X_85_45                       1.000000
X_86_46                       1.000000
X_87_24                       1.000000
X_88_29                       1.000000
X_89_10                       1.000000
X_90_25                       1.000000
X_91_40                       1.000000
X_92_18                       1.000000
X_93_42                       1.000000
X_94_36                       1.000000
X_95_41                       1.000000
X_96_33                       1.000000
X_97_40                       1.000000
X_98_23                       1.000000
X_99_13                       1.000000
X_100_45                      1.000000
X_101_15                      1.000000
X_102_19                      1.000000
X_103_40                      1.000000
X_104_43                      1.000000
X_105_5                       1.000000
X_106_27                      1.000000
X_107_20                      1.000000
X_108_18                      1.000000
X_109_48                      1.000000
X_110_11                      1.000000
X_111_17                      1.000000
X_112_34                      1.000000
X_113_9                       1.000000
X_114_2                       1.000000
X_115_3                       1.000000
X_116_11                      1.000000
X_117_32                      1.000000
X_118_21                      1.000000
X_119_42                      1.000000
X_120_26                      1.000000
X_121_30                      1.000000
X_122_38                      1.000000
X_123_17                      1.000000
X_124_34                      1.000000
X_125_21                      1.000000
X_126_22                      1.000000
X_127_2                       1.000000
X_128_50                      1.000000
X_129_29                      1.000000
X_130_14                      1.000000
X_131_39                      1.000000
X_132_22                      1.000000
X_133_8                       1.000000
X_134_17                      1.000000
X_135_28                      1.000000
X_136_3                       1.000000
X_137_32                      1.000000
X_138_22                      1.000000
X_139_37                      1.000000
X_140_47                      1.000000
X_141_18                      1.000000
X_142_43                      1.000000
X_143_23                      1.000000
X_144_47                      1.000000
X_145_6                       1.000000
X_146_28                      1.000000
X_147_49                      1.000000
X_148_49                      1.000000
X_149_3                       1.000000
X_150_29                      1.000000
X_151_4                       1.000000
X_152_47                      1.000000
X_153_20                      1.000000
X_154_25                      1.000000
X_155_30                      1.000000
X_156_20                      1.000000
X_157_5                       1.000000
X_158_44                      1.000000
X_159_1                       1.000000
X_160_13                      1.000000
X_161_47                      1.000000
X_162_42                      1.000000
X_163_38                      1.000000
X_164_18                      1.000000
X_165_10                      1.000000
X_166_27                      1.000000
X_167_37                      1.000000
X_168_9                       1.000000
X_169_38                      1.000000
X_170_4                       1.000000
X_171_13                      1.000000
X_172_39                      1.000000
X_173_35                      1.000000
X_174_27                      1.000000
X_175_25                      1.000000
X_176_8                       1.000000
X_177_9                       1.000000
X_178_23                      1.000000
X_179_44                      1.000000
X_180_18                      1.000000
X_181_49                      1.000000
X_182_28                      1.000000
X_183_15                      1.000000
X_184_30                      1.000000
X_185_43                      1.000000
X_186_25                      1.000000
X_187_2                       1.000000
X_188_24                      1.000000
X_189_5                       1.000000
X_190_18                      1.000000
X_191_16                      1.000000
X_192_43                      1.000000
X_193_2                       1.000000
X_194_34                      1.000000
X_195_26                      1.000000
X_196_11                      1.000000
X_197_22                      1.000000
X_198_15                      1.000000
X_199_37                      1.000000
X_200_24                      1.000000
X_201_14                      1.000000
X_202_3                       1.000000
X_203_44                      1.000000
X_204_16                      1.000000
X_205_11                      1.000000
X_206_23                      1.000000
X_207_40                      1.000000
X_208_29                      1.000000
X_209_33                      1.000000
X_210_41                      1.000000
X_211_18                      1.000000
X_212_38                      1.000000
X_213_26                      1.000000
X_214_12                      1.000000
X_215_25                      1.000000
X_216_10                      1.000000
X_217_46                      1.000000
X_218_7                       1.000000
X_219_42                      1.000000
X_220_12                      1.000000
X_221_31                      1.000000
X_222_39                      1.000000
X_223_2                       1.000000
X_224_48                      1.000000
X_225_7                       1.000000
X_226_6                       1.000000
X_227_50                      1.000000
X_228_3                       1.000000
X_229_19                      1.000000
X_230_23                      1.000000
X_231_24                      1.000000
X_232_24                      1.000000
X_233_33                      1.000000
X_234_26                      1.000000
X_235_40                      1.000000
X_236_9                       1.000000
X_237_15                      1.000000
X_238_47                      1.000000
X_239_22                      1.000000
X_240_37                      1.000000
X_241_45                      1.000000
X_242_2                       1.000000
X_243_45                      1.000000
X_244_45                      1.000000
X_245_33                      1.000000
X_246_7                       1.000000
X_247_32                      1.000000
X_248_7                       1.000000
X_249_36                      1.000000
X_250_41                      1.000000
X_251_17                      1.000000
X_252_4                       1.000000
X_253_21                      1.000000
X_254_1                       1.000000
X_255_39                      1.000000
X_256_50                      1.000000
X_257_5                       1.000000
X_258_17                      1.000000
X_259_17                      1.000000
X_260_32                      1.000000
X_261_20                      1.000000
X_262_14                      1.000000
X_263_43                      1.000000
X_264_26                      1.000000
X_265_42                      1.000000
X_266_43                      1.000000
X_267_47                      1.000000
X_268_19                      1.000000
X_269_24                      1.000000
X_270_15                      1.000000
X_271_46                      1.000000
X_272_32                      1.000000
X_273_50                      1.000000
X_274_2                       1.000000
X_275_13                      1.000000
X_276_27                      1.000000
X_277_14                      1.000000
X_278_33                      1.000000
X_279_21                      1.000000
X_280_6                       1.000000
X_281_6                       1.000000
X_282_13                      1.000000
X_283_7                       1.000000
X_284_8                       1.000000
X_285_35                      1.000000
X_286_9                       1.000000
X_287_39                      1.000000
X_288_48                      1.000000
X_289_42                      1.000000
X_290_26                      1.000000
X_291_38                      1.000000
X_292_45                      1.000000
X_293_8                       1.000000
X_294_24                      1.000000
X_295_27                      1.000000
X_296_44                      1.000000
X_297_29                      1.000000
X_298_3                       1.000000
X_299_1                       1.000000
X_300_35                      1.000000
X_301_34                      1.000000
X_302_5                       1.000000
X_303_6                       1.000000
X_304_6                       1.000000
X_305_22                      1.000000
X_306_23                      1.000000
X_307_11                      1.000000
X_308_34                      1.000000
X_309_33                      1.000000
X_310_19                      1.000000
X_311_38                      1.000000
X_312_11                      1.000000
X_313_42                      1.000000
X_314_8                       1.000000
X_315_48                      1.000000
X_316_10                      1.000000
X_317_1                       1.000000
X_318_33                      1.000000
X_319_50                      1.000000
X_320_31                      1.000000
X_321_46                      1.000000
X_322_44                      1.000000
X_323_32                      1.000000
X_324_33                      1.000000
X_325_12                      1.000000
X_326_4                       1.000000
X_327_37                      1.000000
X_328_36                      1.000000
X_329_22                      1.000000
X_330_36                      1.000000
X_331_49                      1.000000
X_332_48                      1.000000
X_333_43                      1.000000
X_334_41                      1.000000
X_335_10                      1.000000
X_336_34                      1.000000
X_337_24                      1.000000
X_338_10                      1.000000
X_339_49                      1.000000
X_340_34                      1.000000
X_341_26                      1.000000
X_342_5                       1.000000
X_343_32                      1.000000
X_344_16                      1.000000
X_345_31                      1.000000
X_346_47                      1.000000
X_347_15                      1.000000
X_348_16                      1.000000
X_349_26                      1.000000
X_350_36                      1.000000
X_351_19                      1.000000
X_352_30                      1.000000
X_353_14                      1.000000
X_354_4                       1.000000
X_355_41                      1.000000
X_356_15                      1.000000
X_357_16                      1.000000
X_358_34                      1.000000
X_359_6                       1.000000
X_360_48                      1.000000
X_361_3                       1.000000
X_362_19                      1.000000
X_363_12                      1.000000
X_364_27                      1.000000
X_365_28                      1.000000
X_366_46                      1.000000
X_367_33                      1.000000
X_368_20                      1.000000
X_369_13                      1.000000
X_370_7                       1.000000
X_371_35                      1.000000
X_372_41                      1.000000
X_373_44                      1.000000
X_374_43                      1.000000
X_375_10                      1.000000
X_376_50                      1.000000
X_377_49                      1.000000
X_378_32                      1.000000
X_379_48                      1.000000
X_380_30                      1.000000
X_381_49                      1.000000
X_382_36                      1.000000
X_383_42                      1.000000
X_384_23                      1.000000
X_385_34                      1.000000
X_386_39                      1.000000
X_387_2                       1.000000
X_388_21                      1.000000
X_389_9                       1.000000
X_390_19                      1.000000
X_391_44                      1.000000
X_392_26                      1.000000
X_393_29                      1.000000
X_394_16                      1.000000
X_395_17                      1.000000
X_396_13                      1.000000
X_397_21                      1.000000
X_398_35                      1.000000
X_399_14                      1.000000
X_400_26                      1.000000
X_401_8                       1.000000
X_402_24                      1.000000
X_403_3                       1.000000
X_404_21                      1.000000
X_405_35                      1.000000
X_406_1                       1.000000
X_407_6                       1.000000
X_408_47                      1.000000
X_409_49                      1.000000
X_410_22                      1.000000
X_411_8                       1.000000
X_412_11                      1.000000
X_413_9                       1.000000
X_414_28                      1.000000
X_415_29                      1.000000
X_416_4                       1.000000
X_417_47                      1.000000
X_418_14                      1.000000
X_419_23                      1.000000
X_420_38                      1.000000
X_421_1                       1.000000
X_422_38                      1.000000
X_423_28                      1.000000
X_424_4                       1.000000
X_425_11                      1.000000
X_426_13                      1.000000
X_427_13                      1.000000
X_428_31                      1.000000
X_429_16                      1.000000
X_430_25                      1.000000
X_431_30                      1.000000
X_432_18                      1.000000
X_433_16                      1.000000
X_434_21                      1.000000
X_435_7                       1.000000
X_436_2                       1.000000
X_437_5                       1.000000
X_438_28                      1.000000
X_439_15                      1.000000
X_440_28                      1.000000
X_441_25                      1.000000
X_442_50                      1.000000
X_443_36                      1.000000
X_444_39                      1.000000
X_445_38                      1.000000
X_446_11                      1.000000
X_447_30                      1.000000
X_448_12                      1.000000
X_449_35                      1.000000
X_450_49                      1.000000
X_451_17                      1.000000
X_452_50                      1.000000
X_453_40                      1.000000
X_454_45                      1.000000
X_455_14                      1.000000
X_456_45                      1.000000
X_457_6                       1.000000
X_458_17                      1.000000
X_459_36                      1.000000
X_460_1                       1.000000
X_461_27                      1.000000
X_462_41                      1.000000
X_463_39                      1.000000
X_464_40                      1.000000
X_465_1                       1.000000
X_466_41                      1.000000
X_467_5                       1.000000
X_468_10                      1.000000
X_469_29                      1.000000
X_470_37                      1.000000
X_471_46                      1.000000
X_472_40                      1.000000
X_473_46                      1.000000
X_474_48                      1.000000
X_475_3                       1.000000
X_476_18                      1.000000
X_477_12                      1.000000
X_478_20                      1.000000
X_479_5                       1.000000
X_480_25                      1.000000
X_481_2                       1.000000
X_482_27                      1.000000
X_483_28                      1.000000
X_484_45                      1.000000
X_485_46                      1.000000
X_486_23                      1.000000
X_487_30                      1.000000
X_488_29                      1.000000
X_489_30                      1.000000
X_490_50                      1.000000
X_491_9                       1.000000
X_492_33                      1.000000
X_493_16                      1.000000
X_494_37                      1.000000
X_495_40                      1.000000
X_496_12                      1.000000
X_497_14                      1.000000
X_498_44                      1.000000
X_499_41                      1.000000
X_500_40                      1.000000
All other variables in the range 1-25001 are 0.
